NAME : mEgtspf.pid18189.gtsp.161061404.tour
COMMENT : Length = 161061404
COMMENT : Found by LKH [Keld Helsgaun] Thu Mar 20 00:17:45 2025
TYPE : TOUR
DIMENSION : 90
TOUR_SECTION
1
78
75
76
77
31
32
33
34
17
18
15
16
37
38
35
36
86
83
84
85
87
88
89
90
5
71
72
73
74
28
29
30
27
2
6
59
60
61
62
8
4
55
56
57
58
44
45
46
43
41
42
39
40
10
22
19
20
21
49
50
47
48
24
25
26
23
53
54
51
52
81
82
79
80
12
13
14
11
9
65
66
63
64
68
69
70
67
7
3
-1
EOF
